desiredZ=[1];
nNurses = 192;
hours = 72;
demand = [40 27 25 38 43 28 4 44 12 25 25 1 47 4 42 36 31 40 29 3 20 26 28 37 45 36 36 47 7 0 13 9 22 1 25 11 12 17 31 26 31 10 13 27 13 40 0 25 17 0 19 19 43 7 17 10 27 31 32 41 19 23 43 34 17 13 37 10 16 26 29 44];
minHours = 14;
maxHours = 25;
maxConsec = 16;
maxPresence = 27;